language Essence 1.3

letting codeWordLength be 39
letting dist be
        function((1, 1) --> 0, (1, 2) --> 16, (1, 3) --> 1, (1, 4) --> 0, (1, 5) --> 11, (2, 1) --> 16, (2, 2) --> 0,
                 (2, 3) --> 16, (2, 4) --> 3, (2, 5) --> 4, (3, 1) --> 1, (3, 2) --> 16, (3, 3) --> 0, (3, 4) --> 1,
                 (3, 5) --> 4, (4, 1) --> 0, (4, 2) --> 3, (4, 3) --> 1, (4, 4) --> 0, (4, 5) --> 14, (5, 1) --> 11,
                 (5, 2) --> 4, (5, 3) --> 4, (5, 4) --> 14, (5, 5) --> 0)
letting maxDist be 27
letting minDist be 44
letting nbCharacter be 5
letting numOfCodeWords be 6
